sarsa 1000 DD_pt 35 20 36 30 31 18 8 25 8 35 8 36 26 18 8 12 15 19 8 30 32 30 36 37 29 8 21 24 37 20 36 35 37 8 31 8 38 8 22 24 24 33 33 8 8 27 19 36 31 32

sarsa 10000 DD_pt 35 20 36 30 31 18 21 25 21 35 8 38 26 8 34 12 22 19 18 30 32 30 35 37 29 8 21 24 37 20 36 27 37 13 31 8 38 8 24 24 37 18 35 8 21 27 19 36 35 32

sarsa 100000 DD_pt 35 18 36 30 31 18 8 25 8 35 8 38 26 18 8 12 15 19 8 30 32 30 36 37 29 8 21 24 37 20 36 25 37 8 31 8 35 8 22 24 37 33 35 8 8 24 19 36 31 32

Q 1000 DD_pt 35 18 36 30 31 18 21 35 21 35 8 38 26 8 34 12 22 33 18 30 32 30 36 37 29 8 21 24 37 20 36 35 37 13 31 8 38 8 24 24 37 33 35 8 21 27 39 36 35 32

Q 10000 DD_pt 8 20 36 30 31 18 21 35 21 35 8 38 26 8 34 12 15 33 18 30 32 30 36 37 29 8 21 24 37 20 36 27 37 8 31 8 35 8 24 24 24 18 35 8 21 27 39 36 35 32

Q 100000 DD_pt 35 18 36 30 31 18 21 35 21 35 8 38 26 8 34 12 22 33 18 30 32 30 36 37 29 8 21 24 37 20 36 27 37 13 24 8 35 8 24 24 37 33 35 8 21 27 39 36 35 32

Q 1000 DD 
35 18 36 30 31 18 21 35 21 35 8 38 26 8 34 12 22 33 18 30 32 30 36 37 29 8 21 24 37 20 36 35 37 13 31 8 38 8 24 24 37 33 35 8 21 27 39 36 35 32

Q 10000 DD 
8 20 36 30 31 18 21 35 21 35 8 38 26 8 34 12 15 33 18 30 32 30 36 37 29 8 21 24 37 20 36 27 37 8 31 8 35 8 24 24 24 18 35 8 21 27 39 36 35 32

Q 100000 DD 
35 18 36 30 31 18 21 35 21 35 8 38 26 8 34 12 22 33 18 30 32 30 36 37 29 8 21 24 37 20 36 27 37 13 24 8 35 8 24 24 37 33 35 8 21 27 39 36 35 32

Q 1000 DD 
35 18 36 30 31 18 21 35 21 35 8 38 26 8 34 12 22 33 18 30 32 30 36 37 29 8 21 24 37 20 36 35 37 13 31 8 38 8 24 24 37 33 35 8 21 27 39 36 35 32

Q 10000 DD 
8 20 36 30 31 18 21 35 21 35 8 38 26 8 34 12 15 33 18 30 32 30 36 37 29 8 21 24 37 20 36 27 37 8 31 8 35 8 24 24 24 18 35 8 21 27 39 36 35 32

Q 100000 DD 
35 18 36 30 31 18 21 35 21 35 8 38 26 8 34 12 22 33 18 30 32 30 36 37 29 8 21 24 37 20 36 27 37 13 24 8 35 8 24 24 37 33 35 8 21 27 39 36 35 32

Q 1000 DD 
35 18 36 30 31 18 21 35 21 35 8 38 26 8 34 12 22 33 18 30 32 30 36 37 29 8 21 24 37 20 36 35 37 13 31 8 38 8 24 24 37 33 35 8 21 27 39 36 35 32

Q 10000 DD 
8 20 36 30 31 18 21 35 21 35 8 38 26 8 34 12 15 33 18 30 32 30 36 37 29 8 21 24 37 20 36 27 37 8 31 8 35 8 24 24 24 18 35 8 21 27 39 36 35 32

Q 100000 DD 
35 18 36 30 31 18 21 35 21 35 8 38 26 8 34 12 22 33 18 30 32 30 36 37 29 8 21 24 37 20 36 27 37 13 24 8 35 8 24 24 37 33 35 8 21 27 39 36 35 32

Q 1000 DD 
35 18 36 30 31 18 21 35 21 35 8 38 26 8 34 12 22 33 18 30 32 30 36 37 29 8 21 24 37 20 36 35 37 13 31 8 38 8 24 24 37 33 35 8 21 27 39 36 35 32

Q 10000 DD 
8 20 36 30 31 18 21 35 21 35 8 38 26 8 34 12 15 33 18 30 32 30 36 37 29 8 21 24 37 20 36 27 37 8 31 8 35 8 24 24 24 18 35 8 21 27 39 36 35 32

Q 100000 DD 
35 18 36 30 31 18 21 35 21 35 8 38 26 8 34 12 22 33 18 30 32 30 36 37 29 8 21 24 37 20 36 27 37 13 24 8 35 8 24 24 37 33 35 8 21 27 39 36 35 32

Q 1000 DD 
35 18 36 30 31 18 21 35 21 35 8 38 26 8 34 12 22 33 18 30 32 30 36 37 29 8 21 24 37 20 36 35 37 13 31 8 38 8 24 24 37 33 35 8 21 27 39 36 35 32

Q 10000 DD 
8 20 36 30 31 18 21 35 21 35 8 38 26 8 34 12 15 33 18 30 32 30 36 37 29 8 21 24 37 20 36 27 37 8 31 8 35 8 24 24 24 18 35 8 21 27 39 36 35 32

Q 100000 DD 
35 18 36 30 31 18 21 35 21 35 8 38 26 8 34 12 22 33 18 30 32 30 36 37 29 8 21 24 37 20 36 27 37 13 24 8 35 8 24 24 37 33 35 8 21 27 39 36 35 32

Q 1000 DD 
35 20 36 30 31 18 8 25 8 35 8 36 26 18 8 12 15 19 8 30 32 30 36 37 29 8 21 24 37 20 36 35 37 8 31 8 38 8 22 24 24 33 33 8 8 27 19 36 31 32

Q 10000 DD 
35 20 36 30 31 18 21 25 21 35 8 38 26 8 34 12 22 19 18 30 32 30 35 37 29 8 21 24 37 20 36 27 37 13 31 8 38 8 24 24 37 18 35 8 21 27 19 36 35 32

Q 100000 DD 
35 18 36 30 31 18 8 25 8 35 8 38 26 18 8 12 15 19 8 30 32 30 36 37 29 8 21 24 37 20 36 25 37 8 31 8 35 8 22 24 37 33 35 8 8 24 19 36 31 32

Q 1000 random 
35 20 36 30 31 18 8 25 8 11 8 36 26 8 8 12 15 33 8 30 32 30 36 37 29 8 21 24 37 20 36 27 37 13 24 8 38 8 21 24 37 33 35 8 21 24 19 36 35 32

Q 10000 random 
35 20 36 30 31 18 8 25 8 35 8 38 26 8 8 12 15 33 8 30 32 30 36 37 29 8 21 24 37 20 36 27 37 13 24 8 35 8 21 24 37 33 32 8 21 27 19 36 35 32

Q 100000 random 
35 20 36 30 31 18 8 25 8 35 8 38 26 8 8 11 15 33 8 30 32 30 36 37 29 8 21 24 37 20 36 35 37 13 24 8 32 8 22 24 37 33 35 8 21 27 19 36 35 32

Q 1000 random 
35 20 36 30 31 18 8 25 8 35 8 36 26 8 8 12 22 19 8 30 32 30 36 37 29 8 21 24 37 20 36 27 37 8 24 8 38 8 24 24 37 33 35 8 8 27 17 36 35 32

Q 10000 random 
8 18 36 30 31 8 21 25 21 35 8 38 26 18 34 12 22 33 18 30 32 30 35 37 29 8 21 24 37 20 36 27 37 13 31 8 35 8 21 24 37 33 35 8 21 27 19 36 35 32

Q 100000 random 
35 18 36 30 31 18 8 35 8 35 8 36 26 8 8 12 22 19 8 30 32 30 36 37 29 8 21 24 37 20 36 25 37 8 24 8 32 8 22 24 37 33 35 8 8 27 19 36 35 32

